param Pe :=
	1	200
	2	150
; 
param Ph := 180; 
param C :=
	1	25
	2	15
; 
param Me:=
	1	1
	2	2
; 
param Mh:=
	1	2
	2		1
;  
param CapE := 200;
param CapH := 220; 
param CapT := 25; 
param Te:
		1	2:=
	1	6	2
	2	0	3
; 
param Th:=
	1	3
	2	2
; 
param Horas := 480; 
param Res:=
	1	600
	2	500
;   
